\ Model spread_copy
\ LP format - for model browsing. Use MPS format to capture full model detail.
Minimize
 
Subject To
 parasitoidDisp[1792,4]: - M[7189,3] + c_8[1799,4] >= 0
 biocontrol2[1799,4]: - M[7196,4] + c_8[1799,4] <= 0
 R411753: M[7189,3] = 1
 R411789: M[7196,4] = 0
Bounds
Binaries
 M[7189,3] M[7196,4] c_8[1799,4]
End
